90 90
84 9
18 22
9 5
52 10
7 41
50 8
30 42
76 8
59 34
8 29
45 11
5 28
32 32
81 26
28 6
16 9
55 31
20 25
37 10
70 14
68 27
44 23
58 19
39 2
4 5
56 22
61 40
85 17
78 1
83 19
43 27
21 36
36 17
48 40
89 4
27 45
66 15
15 24
88 7
46 44
82 43
80 35
14 37
19 32
34 38
62 20
57 26
38 6
73 29
35 12
67 44
47 4
12 42
1 13
69 45
10 39
77 23
41 18
22 31
6 16
53 3
87 43
13 34
24 39
63 37
86 20
23 21
79 25
42 38
11 24
54 18
25 21
40 41
60 35
3 30
51 16
74 33
64 13
33 28
2 1
71 7
75 33
72 11
31 14
90 36
65 15
29 30
26 2
17 3
49 12
